
Gurobi 11.0.0 (win64, C++) logging started Mon Jul 28 22:39:50 2025

Set parameter TokenServer to value "141.76.38.119"
### START HEURISTIC APPROACH APPROACH ###
ProblemVariant: 1
### START PREPROCESSING ###
## Start start solution procedure ##
Start solution with 26 Vehicles and total costs 1726.95 in 52.5419 s.
### END PREPROCESSING ###
Route 0 0-10-8-0 : weight util 0.150000 | volume util 0.380044 | infeasible with packing heuristic | feasible with CP model
Route 1 0-15-16-14-12-11-0 : weight util 0.600000 | volume util 0.521200 | infeasible with packing heuristic | feasible with CP model
Route 2 0-25-24-0 : weight util 0.250000 | volume util 0.462378 | infeasible with packing heuristic | feasible with CP model
Route 3 0-13-19-18-17-0 : weight util 0.400000 | volume util 0.465511 | infeasible with packing heuristic | feasible with CP model
Route 4 0-43-46-47-0 : weight util 0.250000 | volume util 0.493844 | infeasible with packing heuristic | feasible with CP model
Route 5 0-34-28-26-23-21-0 : weight util 0.400000 | volume util 0.564889 | infeasible with packing heuristic | feasible with CP model
Route 6 0-32-33-29-27-0 : weight util 0.450000 | volume util 0.630978 | infeasible with packing heuristic | feasible with CP model
Route 7 0-7-4-2-1-3-0 : weight util 0.400000 | volume util 0.740333 | infeasible with packing heuristic | feasible with CP model
Route 8 0-22-49-41-0 : weight util 0.200000 | volume util 0.649689 | infeasible with packing heuristic | feasible with CP model
Route 9 0-50-48-45-40-0 : weight util 0.200000 | volume util 0.700600 | infeasible with packing heuristic | feasible with CP model
Route 10 0-31-35-37-39-38-36-30-0 : weight util 0.600000 | volume util 0.690044 | infeasible with packing heuristic | feasible with CP model
Route 11 0-60-58-0 : weight util 0.250000 | volume util 0.463222 | infeasible with packing heuristic | feasible with CP model
Route 12 0-67-65-20-0 : weight util 0.150000 | volume util 0.458511 | infeasible with packing heuristic | feasible with CP model
Route 13 0-42-44-59-57-0 : weight util 0.400000 | volume util 0.643022 | infeasible with packing heuristic | feasible with CP model
Route 14 0-63-74-72-61-64-69-0 : weight util 0.700000 | volume util 0.758889 | infeasible with packing heuristic | feasible with CP model
Route 15 0-52-51-54-56-53-55-68-66-0 : weight util 0.700000 | volume util 0.685956 | infeasible with packing heuristic | feasible with CP model
Route 16 0-73-70-71-0 : weight util 0.300000 | volume util 0.466844 | infeasible with packing heuristic | feasible with CP model
Route 17 0-78-77-79-80-76-81-0 : weight util 0.450000 | volume util 0.684067 | infeasible with packing heuristic | feasible with CP model
Route 18 0-75-5-83-82-84-0 : weight util 0.400000 | volume util 0.676800 | infeasible with packing heuristic | feasible with CP model
Route 19 0-62-87-86-90-0 : weight util 0.300000 | volume util 0.581756 | infeasible with packing heuristic | feasible with CP model
Route 20 0-89-85-88-91-0 : weight util 0.400000 | volume util 0.617044 | infeasible with packing heuristic | feasible with CP model
Route 21 0-6-9-100-96-0 : weight util 0.300000 | volume util 0.569778 | infeasible with packing heuristic | feasible with CP model
Route 22 0-95-94-92-93-97-99-98-0 : weight util 0.800000 | volume util 0.583022 | infeasible with packing heuristic | feasible with CP model
